BAYES
196
2 2 2 2 2 2 2 2 2 2 2 2 2 2 2 2 2 2 2 2 2 2 2 2 2 2 2 2 2 2 2 2 2 2 2 2 2 2 2 2 2 2 2 2 2 2 2 2 2 2 2 2 2 2 2 2 2 2 2 2 2 2 2 2 2 2 2 2 2 2 2 2 2 2 2 2 2 2 2 2 2 2 2 2 2 2 2 2 2 2 2 2 2 2 2 2 2 2 2 2 2 2 2 2 2 2 2 2 2 2 2 2 2 2 2 2 2 2 2 2 2 2 2 2 2 2 2 2 2 2 2 2 2 2 2 2 2 2 2 2 2 2 2 2 2 2 2 2 2 2 2 2 2 2 2 2 2 2 2 2 2 2 2 2 2 2 2 2 2 2 2 2 2 2 2 2 2 2 2 2 2 2 2 2 2 2 2 2 2 2 2 2 2 2 2 2
196
1 0
2 0 1
2 1 2
2 2 3
2 3 4
2 4 5
2 5 6
2 6 7
2 7 8
2 8 9
2 9 10
2 10 11
2 11 12
2 12 13
2 0 14
3 1 14 15
3 2 15 16
3 3 16 17
3 4 17 18
3 5 18 19
3 6 19 20
3 7 20 21
3 8 21 22
3 9 22 23
3 10 23 24
3 11 24 25
3 12 25 26
3 13 26 27
2 14 28
3 15 28 29
3 16 29 30
3 17 30 31
3 18 31 32
3 19 32 33
3 20 33 34
3 21 34 35
3 22 35 36
3 23 36 37
3 24 37 38
3 25 38 39
3 26 39 40
3 27 40 41
2 28 42
3 29 42 43
3 30 43 44
3 31 44 45
3 32 45 46
3 33 46 47
3 34 47 48
3 35 48 49
3 36 49 50
3 37 50 51
3 38 51 52
3 39 52 53
3 40 53 54
3 41 54 55
2 42 56
3 43 56 57
3 44 57 58
3 45 58 59
3 46 59 60
3 47 60 61
3 48 61 62
3 49 62 63
3 50 63 64
3 51 64 65
3 52 65 66
3 53 66 67
3 54 67 68
3 55 68 69
2 56 70
3 57 70 71
3 58 71 72
3 59 72 73
3 60 73 74
3 61 74 75
3 62 75 76
3 63 76 77
3 64 77 78
3 65 78 79
3 66 79 80
3 67 80 81
3 68 81 82
3 69 82 83
2 70 84
3 71 84 85
3 72 85 86
3 73 86 87
3 74 87 88
3 75 88 89
3 76 89 90
3 77 90 91
3 78 91 92
3 79 92 93
3 80 93 94
3 81 94 95
3 82 95 96
3 83 96 97
2 84 98
3 85 98 99
3 86 99 100
3 87 100 101
3 88 101 102
3 89 102 103
3 90 103 104
3 91 104 105
3 92 105 106
3 93 106 107
3 94 107 108
3 95 108 109
3 96 109 110
3 97 110 111
2 98 112
3 99 112 113
3 100 113 114
3 101 114 115
3 102 115 116
3 103 116 117
3 104 117 118
3 105 118 119
3 106 119 120
3 107 120 121
3 108 121 122
3 109 122 123
3 110 123 124
3 111 124 125
2 112 126
3 113 126 127
3 114 127 128
3 115 128 129
3 116 129 130
3 117 130 131
3 118 131 132
3 119 132 133
3 120 133 134
3 121 134 135
3 122 135 136
3 123 136 137
3 124 137 138
3 125 138 139
2 126 140
3 127 140 141
3 128 141 142
3 129 142 143
3 130 143 144
3 131 144 145
3 132 145 146
3 133 146 147
3 134 147 148
3 135 148 149
3 136 149 150
3 137 150 151
3 138 151 152
3 139 152 153
2 140 154
3 141 154 155
3 142 155 156
3 143 156 157
3 144 157 158
3 145 158 159
3 146 159 160
3 147 160 161
3 148 161 162
3 149 162 163
3 150 163 164
3 151 164 165
3 152 165 166
3 153 166 167
2 154 168
3 155 168 169
3 156 169 170
3 157 170 171
3 158 171 172
3 159 172 173
3 160 173 174
3 161 174 175
3 162 175 176
3 163 176 177
3 164 177 178
3 165 178 179
3 166 179 180
3 167 180 181
2 168 182
3 169 182 183
3 170 183 184
3 171 184 185
3 172 185 186
3 173 186 187
3 174 187 188
3 175 188 189
3 176 189 190
3 177 190 191
3 178 191 192
3 179 192 193
3 180 193 194
3 181 194 195
2
1 0
4
0 1 1 0
4
0 1 1 0
4
1 0 1 0
4
1 0 1 0
4
1 0 0 1
4
1 0 1 0
4
0 1 0 1
4
0 1 0 1
4
0 1 1 0
4
1 0 1 0
4
0 1 0 1
4
0 1 0 1
4
1 0 0 1
4
0 1 1 0
8
1 0 1 0 1 0 0 1
8
0.5423317391071548 0.45766826089284524 0.2375198706290767 0.7624801293709234 0.4964671838199199 0.5035328161800801 0.6471933498569084 0.35280665014309165
8
1 0 0 1 1 0 0 1
8
0 1 0 1 1 0 0 1
8
0 1 0 1 1 0 1 0
8
0 1 1 0 0 1 1 0
8
0.4973091608507102 0.5026908391492898 0.42485890284837546 0.5751410971516245 0.9949031156916022 0.00509688430839781 0.6562504365762554 0.3437495634237447
8
1 0 1 0 0 1 1 0
8
0 1 1 0 1 0 1 0
8
1 0 1 0 1 0 1 0
8
0.4242701935869378 0.5757298064130622 0.9197305941438904 0.0802694058561097 0.3610256103669932 0.6389743896330068 0.5544828981278105 0.44551710187218946
8
0 1 1 0 0 1 0 1
8
0.02851036230168527 0.9714896376983148 0.47894731381804817 0.5210526861819518 0.7095011965526853 0.2904988034473147 0.3824298264404446 0.6175701735595553
4
1 0 0 1
8
0 1 1 0 1 0 0 1
8
0 1 1 0 1 0 0 1
8
1 0 1 0 1 0 0 1
8
1 0 1 0 1 0 1 0
8
1 0 1 0 0 1 0 1
8
1 0 1 0 1 0 1 0
8
0.054836156431658595 0.9451638435683414 0.42045062712568815 0.579549372874312 0.6345130158194185 0.36548698418058156 0.5273478162128163 0.47265218378718354
8
0 1 1 0 1 0 1 0
8
1 0 0 1 0 1 0 1
8
1 0 0 1 0 1 0 1
8
0 1 0 1 1 0 1 0
8
1 0 0 1 0 1 1 0
8
1 0 1 0 1 0 0 1
4
1 0 0 1
8
1 0 1 0 0 1 0 1
8
0.2990932846959462 0.7009067153040539 0.3618885021439547 0.6381114978560454 0.9543803613442776 0.045619638655722376 0.74706465040776 0.25293534959224
8
1 0 0 1 0 1 1 0
8
1 0 1 0 0 1 1 0
8
1 0 0 1 1 0 0 1
8
0 1 0 1 1 0 1 0
8
1 0 1 0 0 1 1 0
8
1 0 1 0 0 1 0 1
8
0 1 1 0 0 1 1 0
8
0 1 0 1 0 1 1 0
8
1 0 0 1 0 1 1 0
8
0 1 1 0 0 1 1 0
8
0 1 0 1 1 0 0 1
4
1 0 1 0
8
1 0 1 0 0 1 0 1
8
1 0 0 1 1 0 1 0
8
1 0 1 0 1 0 0 1
8
1 0 0 1 0 1 0 1
8
0 1 1 0 0 1 1 0
8
0 1 0 1 1 0 1 0
8
0 1 0 1 0 1 0 1
8
0 1 1 0 1 0 1 0
8
1 0 1 0 1 0 0 1
8
1 0 1 0 1 0 1 0
8
1 0 0 1 0 1 1 0
8
0.3269239174518039 0.6730760825481962 0.48046158111913045 0.5195384188808695 0.6322998220887847 0.36770017791121534 0.13684599047901608 0.863154009520984
8
1 0 0 1 1 0 0 1
4
0 1 0 1
8
1 0 0 1 0 1 0 1
8
0 1 0 1 1 0 0 1
8
0 1 1 0 1 0 0 1
8
0 1 0 1 0 1 1 0
8
0 1 1 0 1 0 1 0
8
1 0 1 0 1 0 0 1
8
0 1 1 0 1 0 0 1
8
1 0 0 1 1 0 0 1
8
0 1 0 1 1 0 0 1
8
1 0 1 0 0 1 1 0
8
0 1 1 0 1 0 0 1
8
0 1 1 0 0 1 0 1
8
1 0 0 1 0 1 0 1
4
0 1 0 1
8
0 1 0 1 1 0 1 0
8
1 0 0 1 1 0 1 0
8
0 1 1 0 0 1 0 1
8
0 1 0 1 0 1 0 1
8
1 0 0 1 1 0 0 1
8
1 0 1 0 0 1 0 1
8
0 1 0 1 1 0 1 0
8
1 0 1 0 0 1 0 1
8
1 0 1 0 1 0 0 1
8
1 0 0 1 0 1 0 1
8
1 0 0 1 1 0 1 0
8
0 1 0 1 0 1 0 1
8
0 1 1 0 1 0 1 0
4
0.6154305403636117 0.3845694596363883 0.46549735820841515 0.5345026417915848
8
0 1 1 0 0 1 1 0
8
0 1 1 0 1 0 1 0
8
0 1 0 1 0 1 0 1
8
1 0 0 1 1 0 0 1
8
0.2817204188828299 0.71827958111717 0.45720156841159576 0.5427984315884044 0.7933499174468175 0.20665008255318254 0.8249479182493555 0.17505208175064432
8
1 0 1 0 1 0 0 1
8
1 0 1 0 1 0 0 1
8
1 0 0 1 1 0 1 0
8
0 1 1 0 1 0 1 0
8
1 0 0 1 1 0 1 0
8
1 0 1 0 0 1 0 1
8
1 0 1 0 1 0 0 1
8
0 1 0 1 0 1 1 0
4
0 1 0 1
8
1 0 1 0 1 0 1 0
8
1 0 1 0 0 1 1 0
8
1 0 1 0 0 1 0 1
8
1 0 0 1 1 0 1 0
8
1 0 1 0 1 0 0 1
8
1 0 0 1 1 0 0 1
8
1 0 1 0 1 0 0 1
8
0.7696754763401578 0.2303245236598423 0.37524320610269835 0.6247567938973017 0.7585350857073127 0.24146491429268735 0.3908188509839608 0.6091811490160393
8
0 1 0 1 1 0 0 1
8
0.2757614884123662 0.7242385115876337 0.06240373833601607 0.9375962616639839 0.29287728406484764 0.7071227159351524 0.26865557707561366 0.7313444229243863
8
0 1 0 1 1 0 0 1
8
1 0 1 0 1 0 1 0
8
0 1 0 1 1 0 1 0
4
0.41118449256567396 0.5888155074343261 0.24617356836831733 0.7538264316316827
8
1 0 1 0 1 0 0 1
8
1 0 1 0 0 1 0 1
8
0 1 1 0 1 0 0 1
8
0 1 1 0 1 0 0 1
8
1 0 0 1 0 1 1 0
8
1 0 0 1 0 1 1 0
8
0 1 0 1 1 0 0 1
8
0 1 1 0 0 1 0 1
8
1 0 0 1 0 1 1 0
8
0 1 0 1 1 0 1 0
8
0.3482963004761846 0.6517036995238153 0.7290298937600899 0.27097010623991025 0.10744830679955347 0.8925516932004466 0.2331597656487856 0.7668402343512144
8
0 1 0 1 1 0 0 1
8
1 0 1 0 1 0 1 0
4
1 0 1 0
8
1 0 1 0 0 1 1 0
8
1 0 0 1 1 0 0 1
8
1 0 0 1 1 0 1 0
8
0 1 0 1 1 0 1 0
8
0 1 0 1 1 0 0 1
8
0 1 0 1 1 0 0 1
8
0.6829308055151546 0.3170691944848454 0.35369427753390337 0.6463057224660966 0.17191235114110395 0.8280876488588961 0.589940571942385 0.410059428057615
8
1 0 0 1 1 0 0 1
8
1 0 0 1 0 1 1 0
8
0.06232309381728246 0.9376769061827175 0.1389544369064341 0.861045563093566 0.10798689519427887 0.8920131048057212 0.5340332894071428 0.46596671059285716
8
1 0 0 1 1 0 0 1
8
0 1 0 1 1 0 1 0
8
0 1 1 0 0 1 0 1
4
1 0 0 1
8
0 1 0 1 1 0 0 1
8
1 0 1 0 0 1 1 0
8
1 0 0 1 0 1 1 0
8
1 0 0 1 0 1 0 1
8
1 0 0 1 1 0 0 1
8
1 0 1 0 0 1 0 1
8
1 0 0 1 1 0 0 1
8
1 0 1 0 1 0 1 0
8
0 1 0 1 0 1 1 0
8
0 1 1 0 0 1 1 0
8
0 1 1 0 1 0 0 1
8
1 0 0 1 1 0 0 1
8
0 1 1 0 0 1 0 1
4
0.5818616401557731 0.4181383598442268 0.4357946052413947 0.5642053947586053
8
0 1 1 0 1 0 0 1
8
0 1 1 0 1 0 1 0
8
0.20424880498873 0.7957511950112699 0.865722679886131 0.13427732011386898 0.08499833418718815 0.9150016658128118 0.4087230925695777 0.5912769074304223
8
1 0 1 0 0 1 0 1
8
0 1 1 0 0 1 1 0
8
1 0 1 0 1 0 1 0
8
0 1 0 1 1 0 1 0
8
0 1 1 0 0 1 1 0
8
1 0 0 1 1 0 1 0
8
0 1 0 1 0 1 0 1
8
1 0 1 0 1 0 0 1
8
0 1 0 1 0 1 0 1
8
1 0 1 0 0 1 1 0
4
0.8795228049437699 0.12047719505623007 0.550728925046283 0.449271074953717
8
1 0 0 1 0 1 1 0
8
1 0 0 1 1 0 0 1
8
1 0 1 0 0 1 1 0
8
1 0 0 1 0 1 1 0
8
1 0 0 1 0 1 0 1
8
1 0 1 0 0 1 1 0
8
0.3332114991165532 0.6667885008834469 0.2832282169476934 0.7167717830523065 0.6749912330905956 0.3250087669094044 0.012549945229961324 0.9874500547700387
8
1 0 0 1 0 1 1 0
8
0 1 1 0 1 0 0 1
8
0.6219785170801069 0.37802148291989307 0.7929497078858775 0.20705029211412254 0.6289947704799886 0.37100522952001136 0.07961368004083291 0.9203863199591671
8
1 0 1 0 0 1 0 1
8
0 1 1 0 0 1 0 1
8
1 0 1 0 1 0 0 1
